solution status: optimal solution found
objective value:                     227595.400697752
d11(0,0)                                            1 	(obj:0)
d11(1,1)                                            1 	(obj:0)
d11(2,3)                                            1 	(obj:0)
d11(2,4)                            0.999999999999999 	(obj:0)
d11(2,5)                                            1 	(obj:0)
d11(3,7)                                            1 	(obj:0)
d11(3,9)                                            1 	(obj:0)
d11(3,11)                                           1 	(obj:0)
d11(3,13)                                           1 	(obj:0)
d11(4,15)                                           1 	(obj:0)
d11(4,17)                                           1 	(obj:0)
d11(4,19)                                           1 	(obj:0)
d11(4,20)                                           1 	(obj:0)
d11(4,21)                                           1 	(obj:0)
d11(4,23)                                           1 	(obj:0)
d11(4,25)                                           1 	(obj:0)
d11(4,27)                                           1 	(obj:0)
d11(4,29)                                           1 	(obj:0)
d11(4,30)                                           1 	(obj:0)
d11(5,31)                                           1 	(obj:0)
d11(5,32)                                           1 	(obj:0)
d11(5,33)                                           1 	(obj:0)
d11(5,35)                                           1 	(obj:0)
d11(5,37)                                           1 	(obj:0)
d11(5,39)                                           1 	(obj:0)
d11(5,40)                                           1 	(obj:0)
d11(5,41)                                           1 	(obj:0)
d11(5,42)                                           1 	(obj:0)
d11(5,43)                                           1 	(obj:0)
d11(5,44)                                           1 	(obj:0)
d11(5,45)                                           1 	(obj:0)
d11(5,46)                                           1 	(obj:0)
d11(5,47)                                           1 	(obj:0)
d11(5,48)                                           1 	(obj:0)
d11(5,49)                                           1 	(obj:0)
d11(5,50)                                           1 	(obj:0)
d11(5,51)                                           1 	(obj:0)
d11(5,52)                                           1 	(obj:0)
d11(5,53)                                           1 	(obj:0)
d11(5,54)                                           1 	(obj:0)
d11(5,55)                                           1 	(obj:0)
d11(5,57)                                           1 	(obj:0)
d11(5,59)                                           1 	(obj:0)
d11(5,60)                                           1 	(obj:0)
d11(5,61)                                           1 	(obj:0)
d11(5,62)                                           1 	(obj:0)
d11(6,63)                                           1 	(obj:0)
d11(6,64)                                           1 	(obj:0)
d11(6,65)                                           1 	(obj:0)
d11(6,66)                                           1 	(obj:0)
d11(6,67)                                           1 	(obj:0)
d11(6,68)                                           1 	(obj:0)
d11(6,69)                                           1 	(obj:0)
d11(6,70)                                           1 	(obj:0)
d11(6,71)                                           1 	(obj:0)
d11(6,72)                                           1 	(obj:0)
d11(6,73)                                           1 	(obj:0)
d11(6,74)                                           1 	(obj:0)
d11(6,75)                                           1 	(obj:0)
d11(6,76)                                           1 	(obj:0)
d11(6,77)                                           1 	(obj:0)
d11(6,78)                                           1 	(obj:0)
d11(6,79)                                           1 	(obj:0)
d11(6,80)                                           1 	(obj:0)
d11(6,81)                                           1 	(obj:0)
d11(6,82)                                           1 	(obj:0)
d11(6,83)                                           1 	(obj:0)
d11(6,84)                                           1 	(obj:0)
d11(6,85)                                           1 	(obj:0)
d11(6,86)                                           1 	(obj:0)
d11(6,87)                                           1 	(obj:0)
d11(6,88)                                           1 	(obj:0)
d11(6,89)                                           1 	(obj:0)
d11(6,90)                                           1 	(obj:0)
d11(6,91)                                           1 	(obj:0)
d11(6,92)                                           1 	(obj:0)
d11(6,93)                                           1 	(obj:0)
d11(6,94)                                           1 	(obj:0)
d11(6,95)                                           1 	(obj:0)
d11(6,96)                                           1 	(obj:0)
d11(6,97)                                           1 	(obj:0)
d11(6,98)                                           1 	(obj:0)
d11(6,99)                                           1 	(obj:0)
d11(6,100)                                          1 	(obj:0)
d11(6,101)                                          1 	(obj:0)
d11(6,102)                                          1 	(obj:0)
d11(6,103)                                          1 	(obj:0)
d11(6,104)                                          1 	(obj:0)
d11(6,105)                                          1 	(obj:0)
d11(6,106)                                          1 	(obj:0)
d11(6,107)                                          1 	(obj:0)
d11(6,108)                                          1 	(obj:0)
d11(6,109)                                          1 	(obj:0)
d11(6,110)                                          1 	(obj:0)
d11(6,111)                                          1 	(obj:0)
d11(6,112)                                          1 	(obj:0)
d11(6,113)                                          1 	(obj:0)
d11(6,114)                                          1 	(obj:0)
d11(6,115)                                          1 	(obj:0)
d11(6,116)                                          1 	(obj:0)
d11(6,117)                                          1 	(obj:0)
d11(6,118)                                          1 	(obj:0)
d11(6,119)                                          1 	(obj:0)
d11(6,120)                                          1 	(obj:0)
d11(6,121)                                          1 	(obj:0)
d11(6,122)                                          1 	(obj:0)
d11(6,123)                                          1 	(obj:0)
d11(6,124)                                          1 	(obj:0)
d11(6,125)                                          1 	(obj:0)
d11(6,126)                                          1 	(obj:0)
d12(1,2)                                            1 	(obj:0)
d12(3,8)                                            1 	(obj:0)
d12(3,10)                                           1 	(obj:0)
d12(3,12)                                           1 	(obj:0)
d12(3,14)                                           1 	(obj:0)
d21(4,15)                                           1 	(obj:0)
d21(5,31)                                           1 	(obj:0)
d21(5,32)                                           1 	(obj:0)
d21(5,33)                                           1 	(obj:0)
d21(5,35)                                           1 	(obj:0)
d21(5,39)                                           1 	(obj:0)
d21(5,47)                                           1 	(obj:0)
d21(6,63)                                           1 	(obj:0)
d21(6,64)                                           1 	(obj:0)
d21(6,65)                                           1 	(obj:0)
d21(6,66)                                           1 	(obj:0)
d21(6,67)                                           1 	(obj:0)
d21(6,68)                                           1 	(obj:0)
d21(6,69)                                           1 	(obj:0)
d21(6,71)                                           1 	(obj:0)
d21(6,72)                                           1 	(obj:0)
d21(6,73)                                           1 	(obj:0)
d21(6,75)                                           1 	(obj:0)
d21(6,79)                                           1 	(obj:0)
d21(6,80)                                           1 	(obj:0)
d21(6,81)                                           1 	(obj:0)
d21(6,83)                                           1 	(obj:0)
d21(6,87)                                           1 	(obj:0)
d21(6,95)                                           1 	(obj:0)
d21(6,96)                                           1 	(obj:0)
d21(6,97)                                           1 	(obj:0)
d21(6,99)                                           1 	(obj:0)
d21(6,103)                                          1 	(obj:0)
d21(6,104)                                          1 	(obj:0)
d21(6,105)                                          1 	(obj:0)
d21(6,107)                                          1 	(obj:0)
d21(6,111)                                          1 	(obj:0)
d21(6,119)                                          1 	(obj:0)
STE(1,1)                             5454.33378201147 	(obj:0)
STE(0,0)                                         6300 	(obj:0)
STE(1,2)                             6808.16601576647 	(obj:0)
STE(2,3)                             3292.08388312262 	(obj:0)
STE(2,4)                             4950.33378201147 	(obj:0)
STE(2,5)                             4645.91611687766 	(obj:0)
STE(2,6)                             6304.16601576647 	(obj:0)
STE(3,7)                             2446.41766513381 	(obj:0)
STE(3,8)                             3800.24989888884 	(obj:0)
STE(3,9)                             4104.66756402266 	(obj:0)
STE(3,10)                            5458.49979777769 	(obj:0)
STE(3,11)                            3800.24989888884 	(obj:0)
STE(3,12)                            5154.08213264388 	(obj:0)
STE(3,13)                            5458.49979777766 	(obj:0)
STE(3,14)                            6812.33203153269 	(obj:0)
STE(4,15)                            284.167766244962 	(obj:0)
STE(4,16)                            1942.41766513381 	(obj:0)
STE(4,17)                                        1638 	(obj:0)
STE(4,18)                            3296.24989888884 	(obj:0)
STE(4,19)                            1942.41766513381 	(obj:0)
STE(4,20)                            3600.66756402263 	(obj:0)
STE(4,21)                            3296.24989888884 	(obj:0)
STE(4,22)                            4954.49979777766 	(obj:0)
STE(4,23)                                        1638 	(obj:0)
STE(4,24)                            3296.24989888884 	(obj:0)
STE(4,25)                            2991.83223375503 	(obj:0)
STE(4,26)                            4650.08213264388 	(obj:0)
STE(4,27)                            3296.24989888881 	(obj:0)
STE(4,28)                            4954.49979777766 	(obj:0)
STE(4,29)                            4650.08213264385 	(obj:0)
STE(4,30)                            6308.33203153267 	(obj:0)
STE(5,31)                           -1878.08213264388 	(obj:0)
STE(5,32)                           -219.832233755038 	(obj:0)
STE(5,33)                           -219.832233755037 	(obj:0)
STE(5,34)                            1438.41766513381 	(obj:0)
STE(5,35)                            -524.24989888885 	(obj:0)
STE(5,36)                                        1134 	(obj:0)
STE(5,37)                            1133.99999999999 	(obj:0)
STE(5,38)                            2792.24989888884 	(obj:0)
STE(5,39)                           -219.832233755032 	(obj:0)
STE(5,40)                            1438.41766513381 	(obj:0)
STE(5,41)                            1438.41766513379 	(obj:0)
STE(5,42)                            3096.66756402263 	(obj:0)
STE(5,43)                                        1134 	(obj:0)
STE(5,44)                            2792.24989888884 	(obj:0)
STE(5,45)                            2792.24989888881 	(obj:0)
STE(5,46)                            4450.49979777766 	(obj:0)
STE(5,47)                           -524.249898888845 	(obj:0)
STE(5,48)                                        1134 	(obj:0)
STE(5,49)                                        1134 	(obj:0)
STE(5,50)                            2792.24989888884 	(obj:0)
STE(5,51)                            829.582334866188 	(obj:0)
STE(5,52)                            2487.83223375503 	(obj:0)
STE(5,53)                            2487.83223375503 	(obj:0)
STE(5,54)                            4146.08213264388 	(obj:0)
STE(5,55)                            1133.99999999997 	(obj:0)
STE(5,56)                            2792.24989888881 	(obj:0)
STE(5,57)                            2792.24989888881 	(obj:0)
STE(5,58)                            4450.49979777766 	(obj:0)
STE(5,59)                              2487.832233755 	(obj:0)
STE(5,60)                            4146.08213264385 	(obj:0)
STE(5,61)                            4146.08213264382 	(obj:0)
STE(5,62)                            5804.33203153266 	(obj:0)
STE(6,63)                            -4040.3320315327 	(obj:0)
STE(6,64)                           -2382.08213264388 	(obj:0)
STE(6,65)                           -2382.08213264385 	(obj:0)
STE(6,66)                           -723.832233755038 	(obj:0)
STE(6,67)                           -2382.08213264385 	(obj:0)
STE(6,68)                           -723.832233755037 	(obj:0)
STE(6,69)                           -723.832233755005 	(obj:0)
STE(6,70)                            934.417665133808 	(obj:0)
STE(6,71)                           -2686.49979777766 	(obj:0)
STE(6,72)                           -1028.24989888885 	(obj:0)
STE(6,73)                           -1028.24989888882 	(obj:0)
STE(6,74)                            629.999999999995 	(obj:0)
STE(6,75)                           -1028.24989888882 	(obj:0)
STE(6,76)                            629.999999999995 	(obj:0)
STE(6,77)                            630.000000000027 	(obj:0)
STE(6,78)                            2288.24989888884 	(obj:0)
STE(6,79)                           -2382.08213264384 	(obj:0)
STE(6,80)                           -723.832233755032 	(obj:0)
STE(6,81)                              -723.832233755 	(obj:0)
STE(6,82)                            934.417665133813 	(obj:0)
STE(6,83)                           -723.832233755028 	(obj:0)
STE(6,84)                            934.417665133785 	(obj:0)
STE(6,85)                            934.417665133817 	(obj:0)
STE(6,86)                            2592.66756402263 	(obj:0)
STE(6,87)                           -1028.24989888881 	(obj:0)
STE(6,88)                                         630 	(obj:0)
STE(6,89)                            630.000000000032 	(obj:0)
STE(6,90)                            2288.24989888884 	(obj:0)
STE(6,91)                                         630 	(obj:0)
STE(6,92)                            2288.24989888881 	(obj:0)
STE(6,93)                            2288.24989888884 	(obj:0)
STE(6,94)                            3946.49979777766 	(obj:0)
STE(6,95)                           -2686.49979777766 	(obj:0)
STE(6,96)                           -1028.24989888884 	(obj:0)
STE(6,97)                           -1028.24989888881 	(obj:0)
STE(6,98)                                         630 	(obj:0)
STE(6,99)                           -1028.24989888882 	(obj:0)
STE(6,100)                           629.999999999995 	(obj:0)
STE(6,101)                           630.000000000027 	(obj:0)
STE(6,102)                           2288.24989888884 	(obj:0)
STE(6,103)                          -1332.66756402263 	(obj:0)
STE(6,104)                           325.582334866188 	(obj:0)
STE(6,105)                            325.58233486622 	(obj:0)
STE(6,106)                           1983.83223375503 	(obj:0)
STE(6,107)                            325.58233486622 	(obj:0)
STE(6,108)                           1983.83223375503 	(obj:0)
STE(6,109)                           1983.83223375507 	(obj:0)
STE(6,110)                           3642.08213264388 	(obj:0)
STE(6,111)                          -1028.24989888885 	(obj:0)
STE(6,112)                           629.999999999968 	(obj:0)
STE(6,113)                           629.999999999999 	(obj:0)
STE(6,114)                           2288.24989888881 	(obj:0)
STE(6,115)                                        630 	(obj:0)
STE(6,116)                           2288.24989888881 	(obj:0)
STE(6,117)                           2288.24989888884 	(obj:0)
STE(6,118)                           3946.49979777766 	(obj:0)
STE(6,119)                            325.58233486619 	(obj:0)
STE(6,120)                             1983.832233755 	(obj:0)
STE(6,121)                           1983.83223375503 	(obj:0)
STE(6,122)                           3642.08213264385 	(obj:0)
STE(6,123)                           1983.83223375501 	(obj:0)
STE(6,124)                           3642.08213264382 	(obj:0)
STE(6,125)                           3642.08213264385 	(obj:0)
STE(6,126)                           5300.33203153266 	(obj:0)
y1(6,99)                             1492.42490899993 	(obj:0)
y1(6,101)                            1492.42490899993 	(obj:0)
y1(6,103)                            1492.42490899993 	(obj:0)
y1(6,105)                            1492.42490899993 	(obj:0)
y1(6,107)                            1492.42490899993 	(obj:0)
y1(6,109)                            1492.42490899993 	(obj:0)
y1(6,111)                            1492.42490899993 	(obj:0)
y1(6,113)                            1492.42490899993 	(obj:0)
y1(6,115)                            1492.42490899993 	(obj:0)
y1(6,117)                            1492.42490899993 	(obj:0)
y1(6,119)                            1492.42490899993 	(obj:0)
y1(6,121)                            1492.42490899993 	(obj:0)
y1(6,123)                            1492.42490899993 	(obj:0)
y1(6,125)                            1492.42490899993 	(obj:0)
BG(5)                                4196.29249897959 	(obj:10)
BG(6)                                1149.93060391276 	(obj:10)
WB(1)                                272.366738746761 	(obj:0)
AVE(1)                               3259.55177567504 	(obj:0)
AVE(2)                               3259.55588804169 	(obj:0)
WB(3)                                592.176615163118 	(obj:0)
AVE(3)                               3579.36165209166 	(obj:0)
AVE(4)                               3579.36576445831 	(obj:0)
WB(5)                                3472.77007794174 	(obj:0)
AVE(5)                               3472.77007794174 	(obj:0)
AVE(6)                                3046.3618950668 	(obj:0)
WG(1)                                2987.18503692828 	(obj:10)
WG(2)                                3259.55588804169 	(obj:10)
WG(3)                                2987.18503692854 	(obj:10)
WG(4)                                3579.36576445831 	(obj:10)
WG(6)                                 3046.3618950668 	(obj:10)
BG(2)                                936.736610937901 	(obj:10)
BG(4)                                616.926734521281 	(obj:10)
y1(1,1)                              307.499596189675 	(obj:0)
y1(2,3)                              1492.42490899996 	(obj:0)
y1(2,5)                              1492.42490899993 	(obj:0)
y1(3,7)                              307.499596189933 	(obj:0)
y1(3,9)                              307.499596189933 	(obj:0)
y1(3,11)                             307.499596189933 	(obj:0)
y1(3,13)                             307.499596189933 	(obj:0)
y1(4,15)                             1492.42490899996 	(obj:0)
y1(4,17)                             1492.42490899996 	(obj:0)
y1(4,19)                             1492.42490899996 	(obj:0)
y1(4,21)                             1492.42490899996 	(obj:0)
y1(4,23)                             1492.42490899996 	(obj:0)
y1(4,25)                             1492.42490899996 	(obj:0)
y1(4,27)                             1492.42490899996 	(obj:0)
y1(4,29)                             1492.42490899996 	(obj:0)
y1(5,31)                             1492.42490899996 	(obj:0)
y1(5,33)                             1492.42490899996 	(obj:0)
y1(5,35)                             1492.42490899996 	(obj:0)
y1(5,37)                             1492.42490899996 	(obj:0)
y1(5,39)                             1492.42490899996 	(obj:0)
y1(5,41)                             1492.42490899996 	(obj:0)
y1(5,43)                             1492.42490899996 	(obj:0)
y1(5,45)                             1492.42490899996 	(obj:0)
y1(5,47)                             1492.42490899996 	(obj:0)
y1(5,49)                             1492.42490899996 	(obj:0)
y1(5,51)                             1492.42490899996 	(obj:0)
y1(5,53)                             1492.42490899996 	(obj:0)
y1(5,55)                             1492.42490899996 	(obj:0)
y1(5,57)                             1492.42490899996 	(obj:0)
y1(5,59)                             1492.42490899996 	(obj:0)
y1(5,61)                             1492.42490899996 	(obj:0)
y1(6,63)                             1492.42490899993 	(obj:0)
y1(6,65)                             1492.42490899993 	(obj:0)
y1(6,67)                             1492.42490899993 	(obj:0)
y1(6,69)                             1492.42490899993 	(obj:0)
y1(6,71)                             1492.42490899993 	(obj:0)
y1(6,73)                             1492.42490899993 	(obj:0)
y1(6,75)                             1492.42490899993 	(obj:0)
y1(6,77)                             1492.42490899993 	(obj:0)
y1(6,79)                             1492.42490899993 	(obj:0)
y1(6,81)                             1492.42490899993 	(obj:0)
y1(6,83)                             1492.42490899993 	(obj:0)
y1(6,85)                             1492.42490899993 	(obj:0)
y1(6,87)                             1492.42490899993 	(obj:0)
y1(6,89)                             1492.42490899993 	(obj:0)
y1(6,91)                             1492.42490899993 	(obj:0)
y1(6,93)                             1492.42490899993 	(obj:0)
y1(6,95)                             1492.42490899993 	(obj:0)
y1(6,97)                             1492.42490899993 	(obj:0)
y2(1,2)                              1065.43791133313 	(obj:0)
y2(3,8)                              1065.43791133286 	(obj:0)
y2(3,10)                             1065.43791133286 	(obj:0)
y2(3,12)                             1065.43791133286 	(obj:0)
y2(3,14)                             1065.43791133286 	(obj:0)
